letting initialStacks = [38, 43, 15, 37, 9, 24, 16, 50, 40, 20, 41, 32, 19, 51, 5, 25, 21, 14, 33, 39, 13, 8, 4, 17, 29, 48, 28, 36, 22, 3, 27, 2, 44, 30, 49, 18, 23, 46, 47, 26, 12, 45, 31, 1, 7, 6, 35, 11, 10, 42, 34]
